0
Node Left Objective IInf Best_Integer Best_Bound ItCnt Gap
0 0 43.0201 6 43.0201 54
0 0 43.0201 6 Cuts:8 61
0 0 43.2905 9 Cuts:5 64
0 0 43.4271 9 LiftProj:5 67
0 0 43.8709 9 LiftProj:6 75
0 0 44.5763 9 Cuts:8 83
0 0 44.6851 9 LiftProj:7 91
0 0 45.0100 9 Cuts:10 104
0 0 45.2484 9 LiftProj:10 111
0+ 0 nan nan 52.9813 45.2484 nan 14.60%
0 0 46.7390 9 52.9813 LiftProj:8 124 11.78%
0 0 46.8329 9 52.9813 LiftProj:8 130 11.60%
0 0 47.2169 8 52.9813 LiftProj:5 144 10.88%
0+ 0 nan nan 52.9813 47.2169 nan 10.88%
0 0 47.2169 8 52.9813 47.2169 214 10.88%
0 0 47.7413 9 52.9813 LiftProj:8 222 9.89%
0 0 48.3776 9 52.9813 LiftProj:6 231 8.69%
0 0 48.9678 9 52.9813 LiftProj:6 237 7.58%
0 0 49.6854 9 52.9813 LiftProj:7 245 6.22%
0 0 51.4358 8 52.9813 LiftProj:1 262 2.92%
0 0 51.6695 8 52.9813 LiftProj:2 267 2.48%
0 0 51.7427 8 52.9813 LiftProj:5 271 2.34%
0 0 51.8114 8 52.9813 LiftProj:2 279 2.21%
0 0 52.1674 7 52.9813 LiftProj:3 292 1.54%
0 0 52.2053 7 52.9813 LiftProj:3 295 1.46%
0 0 52.3165 4 52.9813 LiftProj:1 311 1.25%
0 0 52.9810 2 52.9813 LiftProj:1 319 0.00%
CPXPARAM_MIP_Cuts_LiftProj-MIRCut-FlowCovers:LiftProj 0
CPXPARAM_MIP_Cuts_LiftProj-MIRCut-FlowCovers:MIRCut 0
CPXPARAM_MIP_Cuts_LiftProj-MIRCut-FlowCovers:FlowCovers 5
1
Node Left Objective IInf Best_Integer Best_Bound ItCnt Gap
0 0 2.5600 6 2.5600 61
0 0 2.5600 7 MIRcuts:11 63
0 0 2.5600 7 MIRcuts:1 64
0+ 0 nan nan 11.3251 2.5600 nan 77.40%
0 2 2.5600 6 11.3251 2.5600 64 77.40%
CPXPARAM_MIP_Cuts_LiftProj-MIRCut-FlowCovers:LiftProj 0
CPXPARAM_MIP_Cuts_LiftProj-MIRCut-FlowCovers:MIRCut 2
CPXPARAM_MIP_Cuts_LiftProj-MIRCut-FlowCovers:FlowCovers 0
2
Node Left Objective IInf Best_Integer Best_Bound ItCnt Gap
0 0 40.5363 2 40.5363 49
0+ 0 nan nan 40.6800 40.5363 nan 0.35%
0+ 0 nan nan 40.6800 40.5363 nan 0.35%
0 0 40.5363 2 40.6800 40.5363 97 0.35%
0 0 cutoff 40.6800 40.5363 106 0.35% 0
CPXPARAM_MIP_Cuts_LiftProj-MIRCut-FlowCovers:LiftProj 0
CPXPARAM_MIP_Cuts_LiftProj-MIRCut-FlowCovers:MIRCut 0
CPXPARAM_MIP_Cuts_LiftProj-MIRCut-FlowCovers:FlowCovers 0
3
Node Left Objective IInf Best_Integer Best_Bound ItCnt Gap
0 0 6.4123 1 6.4123 41
0+ 0 nan nan 6.4123 6.4123 nan 0.00%
0 0 cutoff 6.4123 6.4123 41 0.00% 0
CPXPARAM_MIP_Cuts_LiftProj-MIRCut-FlowCovers:LiftProj 0
CPXPARAM_MIP_Cuts_LiftProj-MIRCut-FlowCovers:MIRCut 0
CPXPARAM_MIP_Cuts_LiftProj-MIRCut-FlowCovers:FlowCovers 0
4
Node Left Objective IInf Best_Integer Best_Bound ItCnt Gap
0 0 50.7422 6 50.7422 57
0 0 50.7422 6 MIRcuts:6 59
0 0 50.7422 6 Cuts:3 62
0 2 50.7422 6 50.7422 62 0 0
CPXPARAM_MIP_Cuts_LiftProj-MIRCut-FlowCovers:LiftProj 0
CPXPARAM_MIP_Cuts_LiftProj-MIRCut-FlowCovers:MIRCut 1
CPXPARAM_MIP_Cuts_LiftProj-MIRCut-FlowCovers:FlowCovers 1
5
Node Left Objective IInf Best_Integer Best_Bound ItCnt Gap
0 0 2.3864 6 2.3864 56
0 0 2.3864 6 Cuts:6 60
0+ 0 nan nan 13.6225 2.3864 nan 82.48%
0 0 2.3864 7 13.6225 Cuts:6 63 82.48%
0 2 2.3887 8 13.6225 2.4558 63 81.97%
CPXPARAM_MIP_Cuts_LiftProj-MIRCut-FlowCovers:LiftProj 1
CPXPARAM_MIP_Cuts_LiftProj-MIRCut-FlowCovers:MIRCut 0
CPXPARAM_MIP_Cuts_LiftProj-MIRCut-FlowCovers:FlowCovers 3
6
Node Left Objective IInf Best_Integer Best_Bound ItCnt Gap
0+ 0 nan nan 698.6785 -80.3724 nan 111.50%
0 0 49.1770 2 698.6785 49.1770 57 92.96%
0+ 0 nan nan 49.2390 49.1770 nan 0.13%
0+ 0 nan nan 49.2390 49.1770 nan 0.13%
0 0 49.1770 2 49.2390 49.1770 114 0.13%
0 1 49.1770 2 49.2390 49.1770 119 0.13%
CPXPARAM_MIP_Cuts_LiftProj-MIRCut-FlowCovers:LiftProj 0
CPXPARAM_MIP_Cuts_LiftProj-MIRCut-FlowCovers:MIRCut 0
CPXPARAM_MIP_Cuts_LiftProj-MIRCut-FlowCovers:FlowCovers 0
7
Node Left Objective IInf Best_Integer Best_Bound ItCnt Gap
0 0 7.4387 2 7.4387 48
0+ 0 nan nan 9.7351 7.4387 nan 23.59%
0 0 7.4387 2 9.7351 LiftProj:1 50 23.59%
0 2 7.4387 2 9.7351 7.4387 50 23.59%
CPXPARAM_MIP_Cuts_LiftProj-MIRCut-FlowCovers:LiftProj 0
CPXPARAM_MIP_Cuts_LiftProj-MIRCut-FlowCovers:MIRCut 0
CPXPARAM_MIP_Cuts_LiftProj-MIRCut-FlowCovers:FlowCovers 1
8
Node Left Objective IInf Best_Integer Best_Bound ItCnt Gap
0 0 65.7942 6 65.7942 62
0 0 65.7954 9 Cuts:9 72
0 0 65.8098 9 Cuts:6 75
0 0 65.8191 9 Cuts:7 77
0 0 65.8300 9 Cuts:6 82
0+ 0 nan nan 67.9165 65.8300 nan 3.07%
0+ 0 nan nan 67.9165 65.8300 nan 3.07%
0 0 65.8300 9 67.9165 65.8300 154 3.07%
0 0 65.8330 9 67.9165 LiftProj:5 157 3.07%
0 0 65.8529 7 67.9165 LiftProj:5 162 3.04%
0 0 65.8529 7 67.9165 LiftProj:2 163 3.04%
0 0 65.8578 7 67.9165 LiftProj:2 165 3.03%
0 0 65.8891 9 67.9165 LiftProj:1 171 2.99%
0 0 65.9000 9 67.9165 Cuts:4 175 2.97%
0 0 65.9417 9 67.9165 LiftProj:7 180 2.91%
0 0 65.9916 9 67.9165 LiftProj:8 183 2.83%
0 0 66.0886 9 67.9165 LiftProj:2 187 2.69%
0 0 66.1747 9 67.9165 LiftProj:4 192 2.56%
0 0 66.2026 8 67.9165 LiftProj:4 195 2.52%
0 0 66.2045 9 67.9165 LiftProj:2 196 2.52%
0 2 66.4809 6 67.9165 66.4927 196 2.10%
CPXPARAM_MIP_Cuts_LiftProj-MIRCut-FlowCovers:LiftProj 0
CPXPARAM_MIP_Cuts_LiftProj-MIRCut-FlowCovers:MIRCut 0
CPXPARAM_MIP_Cuts_LiftProj-MIRCut-FlowCovers:FlowCovers 11
9
Node Left Objective IInf Best_Integer Best_Bound ItCnt Gap
0 0 11.8594 6 11.8594 54
0 0 11.9505 9 Cuts:10 64
0 2 11.9505 9 12.5659 64 0 0
CPXPARAM_MIP_Cuts_LiftProj-MIRCut-FlowCovers:LiftProj 0
CPXPARAM_MIP_Cuts_LiftProj-MIRCut-FlowCovers:MIRCut 0
CPXPARAM_MIP_Cuts_LiftProj-MIRCut-FlowCovers:FlowCovers 4
10
Node Left Objective IInf Best_Integer Best_Bound ItCnt Gap
0 0 60.5073 2 60.5073 52
0 0 60.5073 2 LiftProj:1 54
0 0 60.5073 2 LiftProj:1 56
0+ 0 nan nan 60.5115 60.5073 nan 0.01%
CPXPARAM_MIP_Cuts_LiftProj-MIRCut-FlowCovers:LiftProj 0
CPXPARAM_MIP_Cuts_LiftProj-MIRCut-FlowCovers:MIRCut 0
CPXPARAM_MIP_Cuts_LiftProj-MIRCut-FlowCovers:FlowCovers 2
11
Node Left Objective IInf Best_Integer Best_Bound ItCnt Gap
0 0 16.6537 2 16.6537 50
0+ 0 nan nan 16.6575 16.6537 nan 0.02%
0 0 cutoff 16.6575 16.6537 50 0.02% 0
CPXPARAM_MIP_Cuts_LiftProj-MIRCut-FlowCovers:LiftProj 0
CPXPARAM_MIP_Cuts_LiftProj-MIRCut-FlowCovers:MIRCut 0
CPXPARAM_MIP_Cuts_LiftProj-MIRCut-FlowCovers:FlowCovers 0
12
Node Left Objective IInf Best_Integer Best_Bound ItCnt Gap
0 0 44.2061 6 44.2061 61
0 0 44.3946 9 Cuts:7 72
0 0 44.6019 9 Cuts:2 75
0 0 46.2687 9 LiftProj:5 83
0 0 46.4633 9 LiftProj:6 87
0 0 46.7960 9 LiftProj:6 92
0+ 0 nan nan 60.4175 46.7960 nan 22.55%
0 0 47.6366 9 60.4175 LiftProj:7 100 21.15%
0 0 47.7437 9 60.4175 LiftProj:6 105 20.98%
0 0 48.1303 9 60.4175 LiftProj:6 119 20.34%
0 0 48.2999 9 60.4175 LiftProj:6 129 20.06%
0 0 48.3726 9 60.4175 LiftProj:4 135 19.94%
0 0 48.4168 9 60.4175 LiftProj:5 140 19.86%
0 0 48.5498 8 60.4175 LiftProj:6 150 19.64%
0 0 48.5988 9 60.4175 LiftProj:4 154 19.56%
0 0 48.6382 9 60.4175 LiftProj:7 162 19.50%
0 0 48.8380 9 60.4175 LiftProj:4 168 19.17%
0 0 48.8773 9 60.4175 LiftProj:2 169 19.10%
0 0 49.4522 9 60.4175 LiftProj:4 179 18.15%
0 0 49.7752 9 60.4175 LiftProj:6 187 17.61%
0 0 50.2152 9 60.4175 LiftProj:5 196 16.89%
0 0 50.2574 9 60.4175 LiftProj:3 199 16.82%
0 0 50.2753 9 60.4175 LiftProj:4 205 16.79%
0 0 50.3224 9 60.4175 LiftProj:4 210 16.71%
0+ 0 nan nan 55.3987 50.3224 nan 9.16%
0+ 0 nan nan 55.3987 50.3224 nan 9.16%
0 0 50.3224 9 55.3987 50.3224 278 9.16%
0 0 50.4345 8 55.3987 LiftProj:3 286 8.96%
0 0 50.4521 8 55.3987 LiftProj:4 290 8.93%
0 0 50.6216 7 55.3987 LiftProj:7 298 8.62%
0 0 50.6704 8 55.3987 LiftProj:8 302 8.54%
0 0 50.7370 8 55.3987 LiftProj:3 306 8.41%
0 0 50.8568 8 55.3987 LiftProj:6 312 8.20%
0 0 50.8744 8 55.3987 LiftProj:5 314 8.17%
0 0 50.8874 8 55.3987 LiftProj:4 317 8.14%
0 0 50.9097 8 55.3987 LiftProj:7 320 8.10%
0 0 50.9320 8 55.3987 LiftProj:6 323 8.06%
0 0 51.1198 8 55.3987 LiftProj:6 332 7.72%
0 0 51.1376 8 55.3987 LiftProj:4 334 7.69%
0 0 51.1772 8 55.3987 LiftProj:3 337 7.62%
0+ 0 nan nan 55.3987 51.1772 nan 7.62%
0 0 51.2507 8 55.3987 LiftProj:3 341 7.49%
0 0 51.2685 8 55.3987 LiftProj:6 347 7.46%
0 0 51.2819 8 55.3987 LiftProj:6 351 7.43%
0 0 51.3144 8 55.3987 LiftProj:5 355 7.37%
0 0 51.3221 8 55.3987 LiftProj:2 358 7.36%
0 0 51.3259 8 55.3987 LiftProj:1 361 7.35%
0 2 51.3259 8 55.3987 51.3878 361 7.24%
CPXPARAM_MIP_Cuts_LiftProj-MIRCut-FlowCovers:LiftProj 0
CPXPARAM_MIP_Cuts_LiftProj-MIRCut-FlowCovers:MIRCut 0
CPXPARAM_MIP_Cuts_LiftProj-MIRCut-FlowCovers:FlowCovers 17
13
Node Left Objective IInf Best_Integer Best_Bound ItCnt Gap
0 0 10.2945 6 10.2945 57
0+ 0 nan nan 16.4316 10.2945 nan 37.35%
0 0 10.2945 6 16.4316 MIRcuts:4 59 37.35%
0 0 10.2945 7 16.4316 Cuts:3 62 37.35%
0 2 10.2945 7 16.4316 10.2945 62 37.35%
CPXPARAM_MIP_Cuts_LiftProj-MIRCut-FlowCovers:LiftProj 0
CPXPARAM_MIP_Cuts_LiftProj-MIRCut-FlowCovers:MIRCut 1
CPXPARAM_MIP_Cuts_LiftProj-MIRCut-FlowCovers:FlowCovers 1
14
Node Left Objective IInf Best_Integer Best_Bound ItCnt Gap
0 0 46.5469 2 46.5469 53
0+ 0 nan nan 47.4290 46.5469 nan 1.86%
0+ 0 nan nan 47.4290 46.5469 nan 1.86%
0 0 46.5469 2 47.4290 46.5469 100 1.86%
0 1 46.5469 2 47.4290 46.5469 105 1.86%
CPXPARAM_MIP_Cuts_LiftProj-MIRCut-FlowCovers:LiftProj 0
CPXPARAM_MIP_Cuts_LiftProj-MIRCut-FlowCovers:MIRCut 0
CPXPARAM_MIP_Cuts_LiftProj-MIRCut-FlowCovers:FlowCovers 0
15
Node Left Objective IInf Best_Integer Best_Bound ItCnt Gap
0+ 0 nan nan 754.6210 -94.3684 nan 112.51%
0 0 10.7585 2 754.6210 10.7585 50 98.57%
0+ 0 nan nan 11.1073 10.7585 nan 3.14%
0+ 0 nan nan 11.1073 10.7585 nan 3.14%
0 0 10.7585 2 11.1073 10.7585 94 3.14%
0 1 10.7585 2 11.1073 10.7585 99 3.14%
CPXPARAM_MIP_Cuts_LiftProj-MIRCut-FlowCovers:LiftProj 0
CPXPARAM_MIP_Cuts_LiftProj-MIRCut-FlowCovers:MIRCut 0
CPXPARAM_MIP_Cuts_LiftProj-MIRCut-FlowCovers:FlowCovers 0
16
Node Left Objective IInf Best_Integer Best_Bound ItCnt Gap
0 0 58.8715 6 58.8715 57
0 0 58.8715 6 Cuts:6 60
0 0 58.8715 7 LiftProj:2 63
0+ 0 nan nan 61.8856 58.8715 nan 4.87%
0+ 0 nan nan 61.8856 58.8715 nan 4.87%
0 0 58.8715 6 61.8856 58.8715 123 4.87%
0 0 58.8715 7 61.8856 Cuts:3 128 4.87%
0 0 58.8715 6 61.8856 LiftProj:2 131 4.87%
0 2 59.1063 7 61.8856 59.2969 131 4.18%
CPXPARAM_MIP_Cuts_LiftProj-MIRCut-FlowCovers:LiftProj 0
CPXPARAM_MIP_Cuts_LiftProj-MIRCut-FlowCovers:MIRCut 0
CPXPARAM_MIP_Cuts_LiftProj-MIRCut-FlowCovers:FlowCovers 3
17
Node Left Objective IInf Best_Integer Best_Bound ItCnt Gap
0 0 10.2675 6 10.2675 65
0 0 10.2675 6 Cuts:2 67
0+ 0 nan nan 21.7788 10.2675 nan 52.86%
0 0 10.2675 6 21.7788 Cuts:3 69 52.86%
0 2 10.2675 6 21.7788 10.2675 69 52.86%
CPXPARAM_MIP_Cuts_LiftProj-MIRCut-FlowCovers:LiftProj 0
CPXPARAM_MIP_Cuts_LiftProj-MIRCut-FlowCovers:MIRCut 0
CPXPARAM_MIP_Cuts_LiftProj-MIRCut-FlowCovers:FlowCovers 2
18
Node Left Objective IInf Best_Integer Best_Bound ItCnt Gap
0+ 0 nan nan 850.5680 -92.8051 nan 110.91%
0 0 58.3813 2 850.5680 58.3813 51 93.14%
0 0 58.3813 2 850.5680 Cuts:2 53 93.14%
0+ 0 nan nan 66.4612 58.3813 nan 12.16%
0 1 58.3813 2 66.4612 58.3813 55 12.16%
CPXPARAM_MIP_Cuts_LiftProj-MIRCut-FlowCovers:LiftProj 0
CPXPARAM_MIP_Cuts_LiftProj-MIRCut-FlowCovers:MIRCut 0
CPXPARAM_MIP_Cuts_LiftProj-MIRCut-FlowCovers:FlowCovers 1
19
Node Left Objective IInf Best_Integer Best_Bound ItCnt Gap
0+ 0 nan nan 682.2187 -97.6235 nan 114.31%
0 0 15.5882 2 682.2187 15.5882 47 97.72%
0+ 0 nan nan 15.6606 15.5882 nan 0.46%
0+ 0 nan nan 15.6606 15.5882 nan 0.46%
0 0 15.5882 2 15.6606 15.5882 89 0.46%
0 1 15.5882 2 15.6606 15.5882 94 0.46%
CPXPARAM_MIP_Cuts_LiftProj-MIRCut-FlowCovers:LiftProj 0
CPXPARAM_MIP_Cuts_LiftProj-MIRCut-FlowCovers:MIRCut 0
CPXPARAM_MIP_Cuts_LiftProj-MIRCut-FlowCovers:FlowCovers 0
20
Node Left Objective IInf Best_Integer Best_Bound ItCnt Gap
0 0 31.6179 6 31.6179 61
0 2 31.6179 6 31.6179 61 0 0
CPXPARAM_MIP_Cuts_LiftProj-MIRCut-FlowCovers:LiftProj 0
CPXPARAM_MIP_Cuts_LiftProj-MIRCut-FlowCovers:MIRCut 0
CPXPARAM_MIP_Cuts_LiftProj-MIRCut-FlowCovers:FlowCovers 0
21
Node Left Objective IInf Best_Integer Best_Bound ItCnt Gap
0 0 5.4416 6 5.4416 61
0 0 5.4416 6 Cuts:2 63
0 0 5.4416 7 Cuts:3 65
0+ 0 nan nan 9.1778 5.4416 nan 40.71%
0 2 5.4416 6 9.1778 5.4416 65 40.71%
CPXPARAM_MIP_Cuts_LiftProj-MIRCut-FlowCovers:LiftProj 0
CPXPARAM_MIP_Cuts_LiftProj-MIRCut-FlowCovers:MIRCut 0
CPXPARAM_MIP_Cuts_LiftProj-MIRCut-FlowCovers:FlowCovers 2
22
Node Left Objective IInf Best_Integer Best_Bound ItCnt Gap
0 0 28.4414 2 28.4414 42
0+ 0 nan nan 28.5540 28.4414 nan 0.39%
0+ 0 nan nan 28.5540 28.4414 nan 0.39%
0 0 28.4414 2 28.5540 28.4414 86 0.39%
0 0 28.4414 2 28.5540 LiftProj:1 88 0.39%
0 1 28.4414 2 28.5540 28.4414 91 0.39%
CPXPARAM_MIP_Cuts_LiftProj-MIRCut-FlowCovers:LiftProj 0
CPXPARAM_MIP_Cuts_LiftProj-MIRCut-FlowCovers:MIRCut 0
CPXPARAM_MIP_Cuts_LiftProj-MIRCut-FlowCovers:FlowCovers 1
23
Node Left Objective IInf Best_Integer Best_Bound ItCnt Gap
0 0 3.9556 2 3.9556 52
0 0 3.9556 2 LiftProj:1 54
0 0 3.9556 2 MIRcuts:4 55
0+ 0 nan nan 4.0841 3.9556 nan 3.15%
0+ 0 nan nan 4.0841 3.9556 nan 3.15%
0 0 3.9556 2 4.0841 3.9556 104 3.15%
0 0 3.9556 2 4.0841 LiftProj:1 106 3.15%
0 1 3.9556 2 4.0841 3.9556 109 3.15%
CPXPARAM_MIP_Cuts_LiftProj-MIRCut-FlowCovers:LiftProj 0
CPXPARAM_MIP_Cuts_LiftProj-MIRCut-FlowCovers:MIRCut 0
CPXPARAM_MIP_Cuts_LiftProj-MIRCut-FlowCovers:FlowCovers 2
24
Node Left Objective IInf Best_Integer Best_Bound ItCnt Gap
0 0 34.8025 6 34.8025 60
0+ 0 nan nan 38.6713 34.8025 nan 10.00%
0 0 34.8025 6 38.6713 MIRcuts:7 61 10.00%
0 0 34.8025 7 38.6713 Cuts:2 65 10.00%
0+ 0 nan nan 38.6713 34.8025 nan 10.00%
0 0 34.8025 6 38.6713 34.8025 133 10.00%
0 0 34.8025 6 38.6713 Cuts:3 136 10.00%
0 0 34.8025 7 38.6713 Cuts:2 138 10.00%
0 2 34.8250 6 38.6713 34.8427 138 9.90%
CPXPARAM_MIP_Cuts_LiftProj-MIRCut-FlowCovers:LiftProj 0
CPXPARAM_MIP_Cuts_LiftProj-MIRCut-FlowCovers:MIRCut 0
CPXPARAM_MIP_Cuts_LiftProj-MIRCut-FlowCovers:FlowCovers 2
25
Node Left Objective IInf Best_Integer Best_Bound ItCnt Gap
0 0 0.4196 6 0.4196 63
0 0 0.4196 6 MIRcuts:1 64
0 0 0.4196 6 LiftProj:1 66
0 2 0.4196 6 0.4196 66 0 0
CPXPARAM_MIP_Cuts_LiftProj-MIRCut-FlowCovers:LiftProj 0
CPXPARAM_MIP_Cuts_LiftProj-MIRCut-FlowCovers:MIRCut 0
CPXPARAM_MIP_Cuts_LiftProj-MIRCut-FlowCovers:FlowCovers 1
26
Node Left Objective IInf Best_Integer Best_Bound ItCnt Gap
0 0 0 36.9182 36.9182 54 0.00% 0
CPXPARAM_MIP_Cuts_LiftProj-MIRCut-FlowCovers:LiftProj 0
CPXPARAM_MIP_Cuts_LiftProj-MIRCut-FlowCovers:MIRCut 0
CPXPARAM_MIP_Cuts_LiftProj-MIRCut-FlowCovers:FlowCovers 0
27
Node Left Objective IInf Best_Integer Best_Bound ItCnt Gap
0 0 4.5323 2 4.5323 44
0+ 0 nan nan 4.5514 4.5323 nan 0.42%
0+ 0 nan nan 4.5514 4.5323 nan 0.42%
0 0 4.5323 2 4.5514 4.5323 96 0.42%
0 1 4.5323 2 4.5514 4.5323 101 0.42%
CPXPARAM_MIP_Cuts_LiftProj-MIRCut-FlowCovers:LiftProj 0
CPXPARAM_MIP_Cuts_LiftProj-MIRCut-FlowCovers:MIRCut 0
CPXPARAM_MIP_Cuts_LiftProj-MIRCut-FlowCovers:FlowCovers 0
28
Node Left Objective IInf Best_Integer Best_Bound ItCnt Gap
0 0 63.6500 6 63.6500 54
0 0 63.6500 6 LiftProj:1 56
0 0 63.6500 6 Cuts:3 59
0 2 63.8790 7 64.1199 59 0 0
CPXPARAM_MIP_Cuts_LiftProj-MIRCut-FlowCovers:LiftProj 0
CPXPARAM_MIP_Cuts_LiftProj-MIRCut-FlowCovers:MIRCut 1
CPXPARAM_MIP_Cuts_LiftProj-MIRCut-FlowCovers:FlowCovers 2
29
Node Left Objective IInf Best_Integer Best_Bound ItCnt Gap
0+ 0 nan nan 994.8986 -114.3356 nan 111.49%
0+ 0 nan nan 37.2949 -114.3356 nan 406.57%
0 0 6.3884 6 37.2949 6.3884 54 82.87%
0 0 6.3884 6 37.2949 Cuts:6 59 82.87%
0 0 6.3884 6 37.2949 Cuts:3 62 82.87%
0 2 6.3884 7 37.2949 6.3884 62 82.87%
CPXPARAM_MIP_Cuts_LiftProj-MIRCut-FlowCovers:LiftProj 1
CPXPARAM_MIP_Cuts_LiftProj-MIRCut-FlowCovers:MIRCut 1
CPXPARAM_MIP_Cuts_LiftProj-MIRCut-FlowCovers:FlowCovers 3
30
Node Left Objective IInf Best_Integer Best_Bound ItCnt Gap
0+ 0 nan nan 514.4143 -106.7235 nan 120.75%
0+ 0 nan nan 83.5731 -106.7235 nan 227.70%
0 0 69.0899 2 83.5731 69.0899 47 17.33%
0 0 69.0899 2 83.5731 LiftProj:1 49 17.33%
0+ 0 nan nan 69.6843 69.0899 nan 0.85%
0+ 0 nan nan 69.6843 69.0899 nan 0.85%
0 0 69.0899 2 69.6843 69.0899 98 0.85%
0 0 69.0899 2 69.6843 MIRcuts:1 99 0.85%
0 0 69.0899 2 69.6843 LiftProj:1 101 0.85%
0 1 69.0899 2 69.6843 69.0899 104 0.85%
CPXPARAM_MIP_Cuts_LiftProj-MIRCut-FlowCovers:LiftProj 0
CPXPARAM_MIP_Cuts_LiftProj-MIRCut-FlowCovers:MIRCut 0
CPXPARAM_MIP_Cuts_LiftProj-MIRCut-FlowCovers:FlowCovers 2
31
Node Left Objective IInf Best_Integer Best_Bound ItCnt Gap
0 0 7.6579 2 7.6579 41
0+ 0 nan nan 8.0780 7.6579 nan 5.20%
0+ 0 nan nan 8.0780 7.6579 nan 5.20%
0 0 7.6579 2 8.0780 7.6579 81 5.20%
0 1 7.6579 2 8.0780 7.6579 86 5.20%
CPXPARAM_MIP_Cuts_LiftProj-MIRCut-FlowCovers:LiftProj 0
CPXPARAM_MIP_Cuts_LiftProj-MIRCut-FlowCovers:MIRCut 0
CPXPARAM_MIP_Cuts_LiftProj-MIRCut-FlowCovers:FlowCovers 0
32
Node Left Objective IInf Best_Integer Best_Bound ItCnt Gap
0 0 46.2013 6 46.2013 60
0 0 46.2013 6 Cuts:5 62
0 0 46.2013 7 Cuts:6 65
0+ 0 nan nan 49.3481 46.2013 nan 6.38%
0+ 0 nan nan 49.3481 46.2013 nan 6.38%
0 0 46.2013 6 49.3481 46.2013 129 6.38%
0 0 46.2013 6 49.3481 Cuts:8 131 6.38%
0 2 46.2013 6 49.3481 46.2013 131 6.38%
CPXPARAM_MIP_Cuts_LiftProj-MIRCut-FlowCovers:LiftProj 0
CPXPARAM_MIP_Cuts_LiftProj-MIRCut-FlowCovers:MIRCut 0
CPXPARAM_MIP_Cuts_LiftProj-MIRCut-FlowCovers:FlowCovers 2
33
Node Left Objective IInf Best_Integer Best_Bound ItCnt Gap
0 0 0.8948 6 0.8948 57
0 0 0.8948 6 Cuts:10 61
0 0 0.8948 6 Cuts:6 63
0 2 5.2644 6 5.6333 63 0 0
CPXPARAM_MIP_Cuts_LiftProj-MIRCut-FlowCovers:LiftProj 0
CPXPARAM_MIP_Cuts_LiftProj-MIRCut-FlowCovers:MIRCut 0
CPXPARAM_MIP_Cuts_LiftProj-MIRCut-FlowCovers:FlowCovers 3
34
Node Left Objective IInf Best_Integer Best_Bound ItCnt Gap
0 0 41.8656 2 41.8656 44
0 0 41.8656 2 LiftProj:1 46
0 0 41.8656 2 LiftProj:1 48
0+ 0 nan nan 41.9255 41.8656 nan 0.14%
0+ 0 nan nan 41.9255 41.8656 nan 0.14%
0 0 41.8711 3 41.9255 41.8711 96 0.13%
0 0 cutoff 41.9255 98 0.00% 0 0
CPXPARAM_MIP_Cuts_LiftProj-MIRCut-FlowCovers:LiftProj 0
CPXPARAM_MIP_Cuts_LiftProj-MIRCut-FlowCovers:MIRCut 0
CPXPARAM_MIP_Cuts_LiftProj-MIRCut-FlowCovers:FlowCovers 2
35
Node Left Objective IInf Best_Integer Best_Bound ItCnt Gap
0 0 10.6421 2 10.6421 45
0 0 10.6421 2 LiftProj:1 47
0 0 10.6421 2 MIRcuts:1 48
0+ 0 nan nan 10.9052 10.6421 nan 2.41%
0+ 0 nan nan 10.9052 10.6421 nan 2.41%
0 0 10.6421 2 10.9052 10.6421 95 2.41%
0 0 10.6421 2 10.9052 LiftProj:1 97 2.41%
0 1 10.6762 2 10.9052 10.6762 100 2.10%
CPXPARAM_MIP_Cuts_LiftProj-MIRCut-FlowCovers:LiftProj 0
CPXPARAM_MIP_Cuts_LiftProj-MIRCut-FlowCovers:MIRCut 0
CPXPARAM_MIP_Cuts_LiftProj-MIRCut-FlowCovers:FlowCovers 2
36
Node Left Objective IInf Best_Integer Best_Bound ItCnt Gap
0 0 48.4886 6 48.4886 59
0 0 48.4886 6 Cuts:7 63
0+ 0 nan nan 52.9256 48.4886 nan 8.38%
0 0 48.4886 7 52.9256 LiftProj:1 65 8.38%
0+ 0 nan nan 52.9256 48.4886 nan 8.38%
0 0 48.4886 6 52.9256 48.4886 124 8.38%
0 0 48.4886 6 52.9256 MIRcuts:1 125 8.38%
0 0 48.4886 6 52.9256 Cuts:3 128 8.38%
0 2 48.6031 7 52.9256 48.6288 128 8.12%
CPXPARAM_MIP_Cuts_LiftProj-MIRCut-FlowCovers:LiftProj 0
CPXPARAM_MIP_Cuts_LiftProj-MIRCut-FlowCovers:MIRCut 0
CPXPARAM_MIP_Cuts_LiftProj-MIRCut-FlowCovers:FlowCovers 3
37
Node Left Objective IInf Best_Integer Best_Bound ItCnt Gap
0 0 -6.1266 6 -6.1266 62
0 0 -6.1266 6 Cuts:4 65
0 0 -6.1266 7 Cuts:3 68
0+ 0 nan nan 10.0443 -6.1266 nan 161.00%
0 2 -6.1266 7 10.0443 -6.1266 68 161.00%
CPXPARAM_MIP_Cuts_LiftProj-MIRCut-FlowCovers:LiftProj 0
CPXPARAM_MIP_Cuts_LiftProj-MIRCut-FlowCovers:MIRCut 0
CPXPARAM_MIP_Cuts_LiftProj-MIRCut-FlowCovers:FlowCovers 2
38
Node Left Objective IInf Best_Integer Best_Bound ItCnt Gap
0 0 47.4773 2 47.4773 45
0+ 0 nan nan 47.5785 47.4773 nan 0.21%
0+ 0 nan nan 47.5785 47.4773 nan 0.21%
0 0 47.4773 2 47.5785 47.4773 92 0.21%
0 1 47.4773 2 47.5785 47.4773 97 0.21%
CPXPARAM_MIP_Cuts_LiftProj-MIRCut-FlowCovers:LiftProj 0
CPXPARAM_MIP_Cuts_LiftProj-MIRCut-FlowCovers:MIRCut 0
CPXPARAM_MIP_Cuts_LiftProj-MIRCut-FlowCovers:FlowCovers 0
39
Node Left Objective IInf Best_Integer Best_Bound ItCnt Gap
0 0 7.0905 2 7.0905 43
0+ 0 nan nan 7.1260 7.0905 nan 0.50%
0+ 0 nan nan 7.1260 7.0905 nan 0.50%
0 0 7.0905 1 7.1260 7.0905 83 0.50%
0 0 cutoff 7.1260 86 0.00% 0 0
CPXPARAM_MIP_Cuts_LiftProj-MIRCut-FlowCovers:LiftProj 0
CPXPARAM_MIP_Cuts_LiftProj-MIRCut-FlowCovers:MIRCut 0
CPXPARAM_MIP_Cuts_LiftProj-MIRCut-FlowCovers:FlowCovers 0
